p edge 453 -
e 1 186
e 1 207
e 1 218
e 1 227
e 1 228
e 1 229
e 1 230
e 2 3
e 2 186
e 2 408
e 3 2
e 3 7
e 3 186
e 3 238
e 3 243
e 3 408
e 4 6
e 4 145
e 4 147
e 4 241
e 4 243
e 4 404
e 5 148
e 5 186
e 6 4
e 6 7
e 6 61
e 6 108
e 6 157
e 6 158
e 6 159
e 6 167
e 6 169
e 6 170
e 6 220
e 6 222
e 6 227
e 6 228
e 6 241
e 6 243
e 6 245
e 6 350
e 6 360
e 6 374
e 6 408
e 6 426
e 6 428
e 7 3
e 7 6
e 7 68
e 7 99
e 7 145
e 7 147
e 7 227
e 7 228
e 7 238
e 7 243
e 8 15
e 8 23
e 8 352
e 8 353
e 9 12
e 9 16
e 9 176
e 9 182
e 10 299
e 10 300
e 10 386
e 10 387
e 10 408
e 10 449
e 10 451
e 11 299
e 11 300
e 11 383
e 11 384
e 11 408
e 12 9
e 12 176
e 12 182
e 12 249
e 13 89
e 13 112
e 13 153
e 13 186
e 13 193
e 13 205
e 13 231
e 14 145
e 14 147
e 14 202
e 14 205
e 14 371
e 14 376
e 14 408
e 15 8
e 15 352
e 15 353
e 15 356
e 16 9
e 16 17
e 16 176
e 16 182
e 17 16
e 17 18
e 17 176
e 17 182
e 18 17
e 18 18
e 18 19
e 18 176
e 18 182
e 18 352
e 18 354
e 19 18
e 19 20
e 19 352
e 19 354
e 20 19
e 20 21
e 20 352
e 20 354
e 21 20
e 21 22
e 21 352
e 21 354
e 22 21
e 22 23
e 22 352
e 22 354
e 23 8
e 23 22
e 23 352
e 23 353
e 23 354
e 24 102
e 24 186
e 24 227
e 24 228
e 24 287
e 25 103
e 25 186
e 25 227
e 25 228
e 25 289
e 26 105
e 26 186
e 26 227
e 26 228
e 26 292
e 27 39
e 27 186
e 27 227
e 27 228
e 27 229
e 27 230
e 27 392
e 28 31
e 28 44
e 28 186
e 28 227
e 28 228
e 28 229
e 28 230
e 29 30
e 29 76
e 29 186
e 29 227
e 29 228
e 30 29
e 30 90
e 30 153
e 30 227
e 30 228
e 31 28
e 31 89
e 31 186
e 31 205
e 31 212
e 32 76
e 32 155
e 32 186
e 32 298
e 32 392
e 33 37
e 33 145
e 33 147
e 33 153
e 33 390
e 33 408
e 34 166
e 34 186
e 34 371
e 34 372
e 35 399
e 35 437
e 36 37
e 36 45
e 36 145
e 36 147
e 36 229
e 36 230
e 37 33
e 37 36
e 37 145
e 37 147
e 38 44
e 38 88
e 38 153
e 38 427
e 39 27
e 39 39
e 39 153
e 39 227
e 39 228
e 39 229
e 39 230
e 39 427
e 40 117
e 40 118
e 40 173
e 40 174
e 40 186
e 41 77
e 41 79
e 41 186
e 41 227
e 41 228
e 42 43
e 42 49
e 42 155
e 42 186
e 42 227
e 42 228
e 43 42
e 43 155
e 43 186
e 43 396
e 44 28
e 44 38
e 44 227
e 44 228
e 44 229
e 44 230
e 45 36
e 45 155
e 45 186
e 45 229
e 45 230
e 45 297
e 45 298
e 46 104
e 46 186
e 46 227
e 46 228
e 46 288
e 47 107
e 47 186
e 47 227
e 47 228
e 47 291
e 48 106
e 48 186
e 48 227
e 48 228
e 48 290
e 49 42
e 49 153
e 49 155
e 49 227
e 49 228
e 49 422
e 50 186
e 50 227
e 50 228
e 50 261
e 50 406
e 51 72
e 51 186
e 51 359
e 51 447
e 52 69
e 52 71
e 52 186
e 52 312
e 52 446
e 53 54
e 53 145
e 53 147
e 53 150
e 53 154
e 53 426
e 54 53
e 54 145
e 54 147
e 55 150
e 55 154
e 55 426
e 56 123
e 56 153
e 56 217
e 56 274
e 56 433
e 57 61
e 57 153
e 57 186
e 57 250
e 58 59
e 58 60
e 58 145
e 58 147
e 58 153
e 58 198
e 58 408
e 59 58
e 59 70
e 59 145
e 59 147
e 59 153
e 59 408
e 60 58
e 60 124
e 60 145
e 60 147
e 60 198
e 60 365
e 60 408
e 61 6
e 61 57
e 61 153
e 61 186
e 61 220
e 61 222
e 62 63
e 62 124
e 62 125
e 62 128
e 62 132
e 62 145
e 62 147
e 62 205
e 62 248
e 62 408
e 63 62
e 63 145
e 63 147
e 63 205
e 63 364
e 63 408
e 64 65
e 64 186
e 64 227
e 64 228
e 64 413
e 65 64
e 65 227
e 65 228
e 66 67
e 66 164
e 66 186
e 66 408
e 67 66
e 67 186
e 67 408
e 68 7
e 68 91
e 68 108
e 68 109
e 68 145
e 68 147
e 68 227
e 68 228
e 68 229
e 68 230
e 69 52
e 69 71
e 69 186
e 69 312
e 69 446
e 70 59
e 70 125
e 70 145
e 70 147
e 70 186
e 70 205
e 70 208
e 70 408
e 71 52
e 71 69
e 71 186
e 71 312
e 71 373
e 72 51
e 72 186
e 72 359
e 73 146
e 73 147
e 73 281
e 73 348
e 73 349
e 73 426
e 74 340
e 74 342
e 74 383
e 74 408
e 74 444
e 74 445
e 74 449
e 75 100
e 75 155
e 75 186
e 75 298
e 75 392
e 76 29
e 76 32
e 76 186
e 77 41
e 77 155
e 77 227
e 77 228
e 77 298
e 77 422
e 78 79
e 78 155
e 78 173
e 78 174
e 78 270
e 78 343
e 79 41
e 79 78
e 79 173
e 79 174
e 79 186
e 80 81
e 80 156
e 80 186
e 80 229
e 80 230
e 80 233
e 80 272
e 80 273
e 81 80
e 81 83
e 81 186
e 81 229
e 81 230
e 81 233
e 81 272
e 81 273
e 82 84
e 82 85
e 82 186
e 82 229
e 82 230
e 82 233
e 82 272
e 82 273
e 83 81
e 83 84
e 83 186
e 83 229
e 83 230
e 83 233
e 83 272
e 83 273
e 84 82
e 84 83
e 84 186
e 84 229
e 84 230
e 84 233
e 84 272
e 84 273
e 85 82
e 85 101
e 85 153
e 85 186
e 85 229
e 85 230
e 85 233
e 86 89
e 86 121
e 86 165
e 86 227
e 86 228
e 86 268
e 87 90
e 87 100
e 87 153
e 87 227
e 87 228
e 88 38
e 88 153
e 88 186
e 88 201
e 88 202
e 88 211
e 88 221
e 88 231
e 88 427
e 89 13
e 89 31
e 89 86
e 89 90
e 89 109
e 89 114
e 89 116
e 89 153
e 89 165
e 89 171
e 89 186
e 89 193
e 89 198
e 89 205
e 89 207
e 89 208
e 89 212
e 89 214
e 89 217
e 89 223
e 89 224
e 89 227
e 89 228
e 89 229
e 89 230
e 89 231
e 89 268
e 89 269
e 89 277
e 89 282
e 89 389
e 89 392
e 89 395
e 89 409
e 89 436
e 90 30
e 90 87
e 90 89
e 90 153
e 90 205
e 90 214
e 91 68
e 91 186
e 91 417
e 92 146
e 92 147
e 92 186
e 92 408
e 93 145
e 93 147
e 93 301
e 93 303
e 93 412
e 93 440
e 93 443
e 94 95
e 94 150
e 94 152
e 94 186
e 94 285
e 94 408
e 95 94
e 95 186
e 95 408
e 96 153
e 96 155
e 96 172
e 96 220
e 96 229
e 96 230
e 96 414
e 97 98
e 97 144
e 97 186
e 97 408
e 98 97
e 98 186
e 98 229
e 98 230
e 98 432
e 99 7
e 99 193
e 99 220
e 99 227
e 99 228
e 99 427
e 100 75
e 100 87
e 100 186
e 100 227
e 100 228
e 101 85
e 101 119
e 101 153
e 101 278
e 101 426
e 102 24
e 102 155
e 102 227
e 102 228
e 102 298
e 102 402
e 103 25
e 103 155
e 103 227
e 103 228
e 103 298
e 103 309
e 104 46
e 104 155
e 104 227
e 104 228
e 104 298
e 104 337
e 105 26
e 105 155
e 105 227
e 105 228
e 105 280
e 105 298
e 106 48
e 106 155
e 106 227
e 106 228
e 106 298
e 106 401
e 107 47
e 107 155
e 107 227
e 107 228
e 107 298
e 107 394
e 108 6
e 108 68
e 108 145
e 108 147
e 108 227
e 108 228
e 108 360
e 108 408
e 108 428
e 109 68
e 109 89
e 109 205
e 109 227
e 109 228
e 109 229
e 109 230
e 109 269
e 110 145
e 110 147
e 110 266
e 110 408
e 110 417
e 110 432
e 111 129
e 111 153
e 111 186
e 111 190
e 111 231
e 112 13
e 112 130
e 112 153
e 112 186
e 112 231
e 113 186
e 113 262
e 113 452
e 114 89
e 114 153
e 114 205
e 114 436
e 115 120
e 115 186
e 115 296
e 115 365
e 116 89
e 116 117
e 116 171
e 116 186
e 116 205
e 116 227
e 116 228
e 117 40
e 117 116
e 117 186
e 117 227
e 117 228
e 118 40
e 118 173
e 118 174
e 118 186
e 119 101
e 119 278
e 119 316
e 119 426
e 119 427
e 120 115
e 120 233
e 120 385
e 121 86
e 121 157
e 121 227
e 121 228
e 122 145
e 122 147
e 122 198
e 122 199
e 122 229
e 122 230
e 122 408
e 123 56
e 123 225
e 123 274
e 123 433
e 124 60
e 124 62
e 124 128
e 124 131
e 124 132
e 124 135
e 124 365
e 124 426
e 125 62
e 125 70
e 125 128
e 125 145
e 125 147
e 125 186
e 125 205
e 125 208
e 125 248
e 125 408
e 126 133
e 126 146
e 126 147
e 126 408
e 127 128
e 127 143
e 127 186
e 127 220
e 127 231
e 127 275
e 127 332
e 127 335
e 127 344
e 127 376
e 128 62
e 128 124
e 128 125
e 128 127
e 128 132
e 128 134
e 128 143
e 128 145
e 128 147
e 128 186
e 128 205
e 128 210
e 128 216
e 128 220
e 128 229
e 128 230
e 128 231
e 128 248
e 128 275
e 128 344
e 128 376
e 128 408
e 128 441
e 129 111
e 129 186
e 129 229
e 129 230
e 129 445
e 130 112
e 130 186
e 130 229
e 130 230
e 130 449
e 131 124
e 131 135
e 131 426
e 132 62
e 132 124
e 132 128
e 132 186
e 132 188
e 133 126
e 133 146
e 133 147
e 133 408
e 134 128
e 134 210
e 134 216
e 135 124
e 135 131
e 135 136
e 135 146
e 135 147
e 135 167
e 135 183
e 135 186
e 135 205
e 135 208
e 135 250
e 135 299
e 135 304
e 135 383
e 135 406
e 135 407
e 135 426
e 136 135
e 136 145
e 136 147
e 136 186
e 136 205
e 136 208
e 136 248
e 136 376
e 136 408
e 136 426
e 137 141
e 137 184
e 137 186
e 137 205
e 137 448
e 138 138
e 138 232
e 139 141
e 139 142
e 139 229
e 139 230
e 140 153
e 140 160
e 140 168
e 140 186
e 140 229
e 140 230
e 141 137
e 141 139
e 141 186
e 141 229
e 141 230
e 141 448
e 142 139
e 142 229
e 142 230
e 143 127
e 143 128
e 143 145
e 143 147
e 143 205
e 143 229
e 143 230
e 143 332
e 143 335
e 143 349
e 143 408
e 144 97
e 144 157
e 144 186
e 144 408
e 144 417
e 145 4
e 145 7
e 145 14
e 145 33
e 145 36
e 145 37
e 145 53
e 145 54
e 145 58
e 145 59
e 145 60
e 145 62
e 145 63
e 145 68
e 145 70
e 145 93
e 145 108
e 145 110
e 145 122
e 145 125
e 145 128
e 145 136
e 145 143
e 145 145
e 145 146
e 145 147
e 145 149
e 145 152
e 145 153
e 145 154
e 145 155
e 145 158
e 145 159
e 145 162
e 145 164
e 145 167
e 145 175
e 145 176
e 145 183
e 145 184
e 145 185
e 145 186
e 145 198
e 145 202
e 145 205
e 145 206
e 145 208
e 145 211
e 145 231
e 145 235
e 145 236
e 145 237
e 145 238
e 145 244
e 145 245
e 145 248
e 145 258
e 145 259
e 145 285
e 145 300
e 145 303
e 145 306
e 145 311
e 145 318
e 145 320
e 145 321
e 145 322
e 145 323
e 145 324
e 145 325
e 145 326
e 145 327
e 145 328
e 145 329
e 145 332
e 145 333
e 145 334
e 145 335
e 145 336
e 145 342
e 145 349
e 145 364
e 145 368
e 145 370
e 145 371
e 145 373
e 145 376
e 145 390
e 145 399
e 145 404
e 145 405
e 145 408
e 145 409
e 145 416
e 145 417
e 145 422
e 145 424
e 145 425
e 145 427
e 145 430
e 145 431
e 145 432
e 145 441
e 145 444
e 145 451
e 146 73
e 146 92
e 146 126
e 146 133
e 146 135
e 146 145
e 146 147
e 146 155
e 146 158
e 146 159
e 146 164
e 146 167
e 146 176
e 146 183
e 146 184
e 146 186
e 146 188
e 146 196
e 146 197
e 146 198
e 146 200
e 146 205
e 146 208
e 146 231
e 146 246
e 146 295
e 146 298
e 146 299
e 146 300
e 146 302
e 146 348
e 146 365
e 146 405
e 146 408
e 146 413
e 146 414
e 146 419
e 146 426
e 147 4
e 147 7
e 147 14
e 147 33
e 147 36
e 147 37
e 147 53
e 147 54
e 147 58
e 147 59
e 147 60
e 147 62
e 147 63
e 147 68
e 147 70
e 147 73
e 147 92
e 147 93
e 147 108
e 147 110
e 147 122
e 147 125
e 147 126
e 147 128
e 147 133
e 147 135
e 147 136
e 147 143
e 147 145
e 147 146
e 147 147
e 147 149
e 147 152
e 147 153
e 147 154
e 147 155
e 147 158
e 147 159
e 147 162
e 147 164
e 147 167
e 147 173
e 147 175
e 147 176
e 147 183
e 147 184
e 147 185
e 147 186
e 147 196
e 147 197
e 147 198
e 147 200
e 147 202
e 147 205
e 147 206
e 147 208
e 147 211
e 147 216
e 147 231
e 147 235
e 147 236
e 147 237
e 147 238
e 147 244
e 147 245
e 147 246
e 147 248
e 147 258
e 147 259
e 147 273
e 147 285
e 147 295
e 147 298
e 147 300
e 147 303
e 147 306
e 147 311
e 147 318
e 147 320
e 147 321
e 147 322
e 147 323
e 147 324
e 147 325
e 147 326
e 147 327
e 147 328
e 147 329
e 147 332
e 147 333
e 147 334
e 147 335
e 147 336
e 147 342
e 147 348
e 147 349
e 147 364
e 147 368
e 147 370
e 147 371
e 147 373
e 147 376
e 147 390
e 147 399
e 147 404
e 147 408
e 147 409
e 147 413
e 147 414
e 147 416
e 147 417
e 147 419
e 147 422
e 147 424
e 147 425
e 147 426
e 147 427
e 147 430
e 147 431
e 147 432
e 147 438
e 147 441
e 147 444
e 147 451
e 148 5
e 148 148
e 148 186
e 149 145
e 149 147
e 149 152
e 149 154
e 149 186
e 149 323
e 149 352
e 149 355
e 149 412
e 149 429
e 150 53
e 150 55
e 150 94
e 150 152
e 150 154
e 150 285
e 150 426
e 151 154
e 151 285
e 151 426
e 152 94
e 152 145
e 152 147
e 152 149
e 152 150
e 152 285
e 152 318
e 153 13
e 153 30
e 153 33
e 153 38
e 153 39
e 153 49
e 153 56
e 153 57
e 153 58
e 153 59
e 153 61
e 153 85
e 153 87
e 153 88
e 153 89
e 153 90
e 153 96
e 153 101
e 153 111
e 153 112
e 153 114
e 153 140
e 153 145
e 153 147
e 153 155
e 153 168
e 153 173
e 153 174
e 153 186
e 153 190
e 153 205
e 153 208
e 153 217
e 153 220
e 153 227
e 153 228
e 153 229
e 153 230
e 153 231
e 153 233
e 153 244
e 153 265
e 153 270
e 153 271
e 153 276
e 153 277
e 153 282
e 153 286
e 153 306
e 153 311
e 153 370
e 153 385
e 153 389
e 153 390
e 153 391
e 153 392
e 153 395
e 153 407
e 153 408
e 153 414
e 153 415
e 153 421
e 153 422
e 153 427
e 154 53
e 154 55
e 154 145
e 154 147
e 154 149
e 154 150
e 154 151
e 154 205
e 154 208
e 154 231
e 154 245
e 154 285
e 154 352
e 154 355
e 154 408
e 154 426
e 155 32
e 155 42
e 155 43
e 155 45
e 155 49
e 155 75
e 155 77
e 155 78
e 155 96
e 155 102
e 155 103
e 155 104
e 155 105
e 155 106
e 155 107
e 155 145
e 155 146
e 155 147
e 155 153
e 155 176
e 155 184
e 155 186
e 155 215
e 155 220
e 155 227
e 155 228
e 155 264
e 155 267
e 155 270
e 155 271
e 155 276
e 155 277
e 155 280
e 155 295
e 155 297
e 155 298
e 155 309
e 155 317
e 155 337
e 155 343
e 155 368
e 155 370
e 155 382
e 155 388
e 155 392
e 155 394
e 155 401
e 155 402
e 155 408
e 155 409
e 155 413
e 155 414
e 155 422
e 155 426
e 155 434
e 155 435
e 155 437
e 156 80
e 156 272
e 156 273
e 157 6
e 157 121
e 157 144
e 157 159
e 157 169
e 157 170
e 157 186
e 157 227
e 157 228
e 157 408
e 157 417
e 158 6
e 158 145
e 158 146
e 158 147
e 158 159
e 158 350
e 158 374
e 159 6
e 159 145
e 159 146
e 159 147
e 159 157
e 159 158
e 159 161
e 159 164
e 159 169
e 159 170
e 159 186
e 159 231
e 160 140
e 160 164
e 160 186
e 160 229
e 160 230
e 161 159
e 161 186
e 161 231
e 161 259
e 161 295
e 162 145
e 162 147
e 162 164
e 162 186
e 162 393
e 162 404
e 163 238
e 163 243
e 163 245
e 163 426
e 164 66
e 164 145
e 164 146
e 164 147
e 164 159
e 164 160
e 164 162
e 164 229
e 164 230
e 164 405
e 165 86
e 165 89
e 165 268
e 166 34
e 166 186
e 166 361
e 166 362
e 166 371
e 166 427
e 167 6
e 167 135
e 167 145
e 167 146
e 167 147
e 167 168
e 167 169
e 167 170
e 167 431
e 168 140
e 168 153
e 168 167
e 168 170
e 168 229
e 168 230
e 169 6
e 169 157
e 169 159
e 169 167
e 169 170
e 170 6
e 170 157
e 170 159
e 170 167
e 170 168
e 170 169
e 171 89
e 171 116
e 171 205
e 171 382
e 171 427
e 172 96
e 172 173
e 172 174
e 172 229
e 172 230
e 172 434
e 173 40
e 173 78
e 173 79
e 173 118
e 173 147
e 173 153
e 173 172
e 173 174
e 173 175
e 173 186
e 173 280
e 173 285
e 173 286
e 173 287
e 173 288
e 173 289
e 173 290
e 173 291
e 173 292
e 173 309
e 173 337
e 173 365
e 173 370
e 173 374
e 173 388
e 173 394
e 173 396
e 173 401
e 173 402
e 173 414
e 173 426
e 173 434
e 173 435
e 174 40
e 174 78
e 174 79
e 174 118
e 174 153
e 174 172
e 174 173
e 174 186
e 174 280
e 174 285
e 174 286
e 174 287
e 174 288
e 174 289
e 174 290
e 174 291
e 174 292
e 174 309
e 174 337
e 174 365
e 174 370
e 174 374
e 174 388
e 174 394
e 174 396
e 174 401
e 174 402
e 174 414
e 174 434
e 174 435
e 175 145
e 175 147
e 175 173
e 175 426
e 175 430
e 176 9
e 176 12
e 176 16
e 176 17
e 176 18
e 176 145
e 176 146
e 176 147
e 176 155
e 176 182
e 176 183
e 176 184
e 176 186
e 176 188
e 176 198
e 176 249
e 176 295
e 176 298
e 176 302
e 176 408
e 176 420
e 176 426
e 176 435
e 176 437
e 177 180
e 177 229
e 177 230
e 177 330
e 178 179
e 178 181
e 178 229
e 178 230
e 179 178
e 179 182
e 179 186
e 180 177
e 180 229
e 180 230
e 181 178
e 181 229
e 181 230
e 182 9
e 182 12
e 182 16
e 182 17
e 182 18
e 182 176
e 182 179
e 182 186
e 182 249
e 183 135
e 183 145
e 183 146
e 183 147
e 183 176
e 183 186
e 183 188
e 183 205
e 183 208
e 183 229
e 183 230
e 183 231
e 183 246
e 183 310
e 183 383
e 183 426
e 184 137
e 184 145
e 184 146
e 184 147
e 184 155
e 184 176
e 184 186
e 184 188
e 184 198
e 184 205
e 184 295
e 184 298
e 184 302
e 184 310
e 184 347
e 184 408
e 184 435
e 184 437
e 185 145
e 185 147
e 185 185
e 185 186
e 185 187
e 185 233
e 185 234
e 185 306
e 185 408
e 185 453
e 186 1
e 186 2
e 186 3
e 186 5
e 186 13
e 186 24
e 186 25
e 186 26
e 186 27
e 186 28
e 186 29
e 186 31
e 186 32
e 186 34
e 186 40
e 186 41
e 186 42
e 186 43
e 186 45
e 186 46
e 186 47
e 186 48
e 186 50
e 186 51
e 186 52
e 186 57
e 186 61
e 186 64
e 186 66
e 186 67
e 186 69
e 186 70
e 186 71
e 186 72
e 186 75
e 186 76
e 186 79
e 186 80
e 186 81
e 186 82
e 186 83
e 186 84
e 186 85
e 186 88
e 186 89
e 186 91
e 186 92
e 186 94
e 186 95
e 186 97
e 186 98
e 186 100
e 186 111
e 186 112
e 186 113
e 186 115
e 186 116
e 186 117
e 186 118
e 186 125
e 186 127
e 186 128
e 186 129
e 186 130
e 186 132
e 186 135
e 186 136
e 186 137
e 186 140
e 186 141
e 186 144
e 186 145
e 186 146
e 186 147
e 186 148
e 186 149
e 186 153
e 186 155
e 186 157
e 186 159
e 186 160
e 186 161
e 186 162
e 186 166
e 186 173
e 186 174
e 186 176
e 186 179
e 186 182
e 186 183
e 186 184
e 186 185
e 186 186
e 186 187
e 186 188
e 186 190
e 186 191
e 186 194
e 186 195
e 186 197
e 186 198
e 186 201
e 186 202
e 186 203
e 186 204
e 186 205
e 186 207
e 186 208
e 186 210
e 186 211
e 186 213
e 186 215
e 186 216
e 186 217
e 186 219
e 186 220
e 186 221
e 186 226
e 186 227
e 186 228
e 186 229
e 186 230
e 186 231
e 186 233
e 186 238
e 186 239
e 186 243
e 186 246
e 186 247
e 186 251
e 186 252
e 186 253
e 186 254
e 186 255
e 186 256
e 186 259
e 186 260
e 186 261
e 186 262
e 186 269
e 186 272
e 186 273
e 186 279
e 186 283
e 186 284
e 186 285
e 186 286
e 186 287
e 186 288
e 186 289
e 186 290
e 186 291
e 186 292
e 186 293
e 186 294
e 186 295
e 186 296
e 186 297
e 186 298
e 186 299
e 186 300
e 186 302
e 186 305
e 186 306
e 186 307
e 186 308
e 186 310
e 186 311
e 186 312
e 186 313
e 186 314
e 186 315
e 186 317
e 186 318
e 186 319
e 186 323
e 186 324
e 186 330
e 186 331
e 186 334
e 186 335
e 186 336
e 186 338
e 186 339
e 186 341
e 186 342
e 186 345
e 186 346
e 186 347
e 186 359
e 186 363
e 186 365
e 186 369
e 186 371
e 186 373
e 186 375
e 186 376
e 186 381
e 186 382
e 186 383
e 186 384
e 186 386
e 186 387
e 186 389
e 186 392
e 186 393
e 186 396
e 186 400
e 186 404
e 186 408
e 186 409
e 186 410
e 186 411
e 186 412
e 186 413
e 186 416
e 186 417
e 186 418
e 186 419
e 186 420
e 186 426
e 186 427
e 186 429
e 186 431
e 186 435
e 186 436
e 186 438
e 186 439
e 186 440
e 186 442
e 186 443
e 186 446
e 186 447
e 186 448
e 186 449
e 186 450
e 186 451
e 186 452
e 187 185
e 187 186
e 187 226
e 187 233
e 187 234
e 187 363
e 187 371
e 187 376
e 187 381
e 187 382
e 187 411
e 187 423
e 187 425
e 188 132
e 188 146
e 188 176
e 188 183
e 188 184
e 188 186
e 188 198
e 188 227
e 188 228
e 188 229
e 188 230
e 188 231
e 188 246
e 188 302
e 188 408
e 189 361
e 189 362
e 189 427
e 190 111
e 190 153
e 190 186
e 190 231
e 191 186
e 191 227
e 191 228
e 191 286
e 191 297
e 192 293
e 192 376
e 193 13
e 193 89
e 193 99
e 193 205
e 193 212
e 193 220
e 193 224
e 193 376
e 193 382
e 193 391
e 193 392
e 193 427
e 194 186
e 194 219
e 194 260
e 195 186
e 195 196
e 195 217
e 195 365
e 195 450
e 196 146
e 196 147
e 196 195
e 196 198
e 196 200
e 196 365
e 196 426
e 197 146
e 197 147
e 197 186
e 197 198
e 197 205
e 197 208
e 197 231
e 197 426
e 198 58
e 198 60
e 198 89
e 198 122
e 198 145
e 198 146
e 198 147
e 198 176
e 198 184
e 198 186
e 198 188
e 198 196
e 198 197
e 198 200
e 198 205
e 198 208
e 198 231
e 198 261
e 198 302
e 198 311
e 198 365
e 198 408
e 198 409
e 198 426
e 199 122
e 199 211
e 199 227
e 199 228
e 199 229
e 199 230
e 199 408
e 200 146
e 200 147
e 200 196
e 200 198
e 200 217
e 200 311
e 200 408
e 200 426
e 201 88
e 201 186
e 201 202
e 201 210
e 201 220
e 201 231
e 202 14
e 202 88
e 202 145
e 202 147
e 202 186
e 202 201
e 202 205
e 202 220
e 202 231
e 202 267
e 202 295
e 202 408
e 202 427
e 202 439
e 202 442
e 203 186
e 203 231
e 203 427
e 203 442
e 204 186
e 204 205
e 204 213
e 204 222
e 204 233
e 204 426
e 205 13
e 205 14
e 205 31
e 205 62
e 205 63
e 205 70
e 205 89
e 205 90
e 205 109
e 205 114
e 205 116
e 205 125
e 205 128
e 205 135
e 205 136
e 205 137
e 205 143
e 205 145
e 205 146
e 205 147
e 205 153
e 205 154
e 205 171
e 205 183
e 205 184
e 205 186
e 205 193
e 205 197
e 205 198
e 205 202
e 205 204
e 205 206
e 205 207
e 205 208
e 205 212
e 205 213
e 205 214
e 205 217
e 205 223
e 205 224
e 205 227
e 205 228
e 205 229
e 205 230
e 205 231
e 205 245
e 205 246
e 205 263
e 205 269
e 205 282
e 205 304
e 205 311
e 205 316
e 205 347
e 205 349
e 205 364
e 205 392
e 205 397
e 205 408
e 205 409
e 205 426
e 205 427
e 205 436
e 205 441
e 206 145
e 206 147
e 206 205
e 206 207
e 206 229
e 206 230
e 206 408
e 207 1
e 207 89
e 207 186
e 207 205
e 207 206
e 207 217
e 207 227
e 207 228
e 207 229
e 207 230
e 207 408
e 208 70
e 208 89
e 208 125
e 208 135
e 208 136
e 208 145
e 208 146
e 208 147
e 208 153
e 208 154
e 208 183
e 208 186
e 208 197
e 208 198
e 208 205
e 208 227
e 208 228
e 208 231
e 208 245
e 208 246
e 208 304
e 208 311
e 208 316
e 208 408
e 208 426
e 208 427
e 209 231
e 209 452
e 210 128
e 210 134
e 210 186
e 210 201
e 210 216
e 210 220
e 210 272
e 210 300
e 211 88
e 211 145
e 211 147
e 211 186
e 211 199
e 211 227
e 211 228
e 211 229
e 211 230
e 211 231
e 211 416
e 212 31
e 212 89
e 212 193
e 212 205
e 212 391
e 212 427
e 213 186
e 213 204
e 213 205
e 214 89
e 214 90
e 214 205
e 215 155
e 215 186
e 215 227
e 215 228
e 215 298
e 215 365
e 215 382
e 215 409
e 216 128
e 216 134
e 216 147
e 216 186
e 216 210
e 216 273
e 216 408
e 216 426
e 217 56
e 217 89
e 217 153
e 217 186
e 217 195
e 217 200
e 217 205
e 217 207
e 217 311
e 217 408
e 217 450
e 218 1
e 218 218
e 218 227
e 218 228
e 218 229
e 218 230
e 218 232
e 219 186
e 219 194
e 219 260
e 220 6
e 220 61
e 220 96
e 220 99
e 220 127
e 220 128
e 220 153
e 220 155
e 220 186
e 220 193
e 220 201
e 220 202
e 220 210
e 220 222
e 220 231
e 220 267
e 220 269
e 220 298
e 220 376
e 220 408
e 220 414
e 220 427
e 220 439
e 221 88
e 221 186
e 221 231
e 221 293
e 221 376
e 221 408
e 221 416
e 222 6
e 222 61
e 222 204
e 222 220
e 222 233
e 222 426
e 223 89
e 223 205
e 223 282
e 224 89
e 224 193
e 224 205
e 224 392
e 224 427
e 225 123
e 225 274
e 225 433
e 226 186
e 226 187
e 226 233
e 226 363
e 226 376
e 227 1
e 227 6
e 227 7
e 227 24
e 227 25
e 227 26
e 227 27
e 227 28
e 227 29
e 227 30
e 227 39
e 227 41
e 227 42
e 227 44
e 227 46
e 227 47
e 227 48
e 227 49
e 227 50
e 227 64
e 227 65
e 227 68
e 227 77
e 227 86
e 227 87
e 227 89
e 227 99
e 227 100
e 227 102
e 227 103
e 227 104
e 227 105
e 227 106
e 227 107
e 227 108
e 227 109
e 227 116
e 227 117
e 227 121
e 227 153
e 227 155
e 227 157
e 227 186
e 227 188
e 227 191
e 227 199
e 227 205
e 227 207
e 227 208
e 227 211
e 227 215
e 227 218
e 227 228
e 227 231
e 227 239
e 227 243
e 227 246
e 227 282
e 227 285
e 227 293
e 227 295
e 227 297
e 227 357
e 227 374
e 227 381
e 227 382
e 227 389
e 227 406
e 227 408
e 227 409
e 227 413
e 227 421
e 227 422
e 227 435
e 227 436
e 228 1
e 228 6
e 228 7
e 228 24
e 228 25
e 228 26
e 228 27
e 228 28
e 228 29
e 228 30
e 228 39
e 228 41
e 228 42
e 228 44
e 228 46
e 228 47
e 228 48
e 228 49
e 228 50
e 228 64
e 228 65
e 228 68
e 228 77
e 228 86
e 228 87
e 228 89
e 228 99
e 228 100
e 228 102
e 228 103
e 228 104
e 228 105
e 228 106
e 228 107
e 228 108
e 228 109
e 228 116
e 228 117
e 228 121
e 228 153
e 228 155
e 228 157
e 228 186
e 228 188
e 228 191
e 228 199
e 228 205
e 228 207
e 228 208
e 228 211
e 228 215
e 228 218
e 228 227
e 228 231
e 228 239
e 228 243
e 228 246
e 228 282
e 228 285
e 228 293
e 228 295
e 228 297
e 228 357
e 228 374
e 228 381
e 228 382
e 228 389
e 228 406
e 228 408
e 228 409
e 228 413
e 228 421
e 228 422
e 228 435
e 228 436
e 229 1
e 229 27
e 229 28
e 229 36
e 229 39
e 229 44
e 229 45
e 229 68
e 229 80
e 229 81
e 229 82
e 229 83
e 229 84
e 229 85
e 229 89
e 229 96
e 229 98
e 229 109
e 229 122
e 229 128
e 229 129
e 229 130
e 229 139
e 229 140
e 229 141
e 229 142
e 229 143
e 229 153
e 229 160
e 229 164
e 229 168
e 229 172
e 229 177
e 229 178
e 229 180
e 229 181
e 229 183
e 229 186
e 229 188
e 229 199
e 229 205
e 229 206
e 229 207
e 229 211
e 229 218
e 229 230
e 229 231
e 229 233
e 229 285
e 229 293
e 229 295
e 229 374
e 229 389
e 229 408
e 229 432
e 229 435
e 229 436
e 229 445
e 229 449
e 230 1
e 230 27
e 230 28
e 230 36
e 230 39
e 230 44
e 230 45
e 230 68
e 230 80
e 230 81
e 230 82
e 230 83
e 230 84
e 230 85
e 230 89
e 230 96
e 230 98
e 230 109
e 230 122
e 230 128
e 230 129
e 230 130
e 230 139
e 230 140
e 230 141
e 230 142
e 230 143
e 230 153
e 230 160
e 230 164
e 230 168
e 230 172
e 230 177
e 230 178
e 230 180
e 230 181
e 230 183
e 230 186
e 230 188
e 230 199
e 230 205
e 230 206
e 230 207
e 230 211
e 230 218
e 230 229
e 230 231
e 230 233
e 230 285
e 230 293
e 230 295
e 230 374
e 230 389
e 230 408
e 230 432
e 230 435
e 230 436
e 230 445
e 230 449
e 231 13
e 231 88
e 231 89
e 231 111
e 231 112
e 231 127
e 231 128
e 231 145
e 231 146
e 231 147
e 231 153
e 231 154
e 231 159
e 231 161
e 231 183
e 231 186
e 231 188
e 231 190
e 231 197
e 231 198
e 231 201
e 231 202
e 231 203
e 231 205
e 231 208
e 231 209
e 231 211
e 231 220
e 231 221
e 231 227
e 231 228
e 231 229
e 231 230
e 231 245
e 231 263
e 231 275
e 231 294
e 231 295
e 231 300
e 231 304
e 231 311
e 231 316
e 231 318
e 231 319
e 231 324
e 231 335
e 231 338
e 231 339
e 231 341
e 231 342
e 231 344
e 231 365
e 231 387
e 231 397
e 231 408
e 231 427
e 231 439
e 231 442
e 231 449
e 231 451
e 231 452
e 232 138
e 232 218
e 232 232
e 233 80
e 233 81
e 233 82
e 233 83
e 233 84
e 233 85
e 233 120
e 233 153
e 233 185
e 233 186
e 233 187
e 233 204
e 233 222
e 233 226
e 233 229
e 233 230
e 233 234
e 233 282
e 233 305
e 233 363
e 233 376
e 233 381
e 233 382
e 233 385
e 233 400
e 233 423
e 233 425
e 233 426
e 234 185
e 234 187
e 234 233
e 235 145
e 235 147
e 235 236
e 235 237
e 236 145
e 236 147
e 236 235
e 236 444
e 237 145
e 237 147
e 237 235
e 238 3
e 238 7
e 238 145
e 238 147
e 238 163
e 238 186
e 238 240
e 238 243
e 238 244
e 238 245
e 238 249
e 238 257
e 238 334
e 238 369
e 238 378
e 238 379
e 238 410
e 238 412
e 238 426
e 238 429
e 238 443
e 239 186
e 239 227
e 239 228
e 239 242
e 239 243
e 240 238
e 240 244
e 240 249
e 240 257
e 240 355
e 241 4
e 241 6
e 241 243
e 242 239
e 243 3
e 243 4
e 243 6
e 243 7
e 243 163
e 243 186
e 243 227
e 243 228
e 243 238
e 243 239
e 243 241
e 243 245
e 243 378
e 243 379
e 243 426
e 244 145
e 244 147
e 244 153
e 244 238
e 244 240
e 244 257
e 244 355
e 244 407
e 244 451
e 245 6
e 245 145
e 245 147
e 245 154
e 245 163
e 245 205
e 245 208
e 245 231
e 245 238
e 245 243
e 245 408
e 245 426
e 246 146
e 246 147
e 246 183
e 246 186
e 246 188
e 246 205
e 246 208
e 246 227
e 246 228
e 246 247
e 246 307
e 246 426
e 247 186
e 247 246
e 247 307
e 248 62
e 248 125
e 248 128
e 248 136
e 248 145
e 248 147
e 248 376
e 248 408
e 249 12
e 249 176
e 249 182
e 249 238
e 249 240
e 249 257
e 250 57
e 250 135
e 250 304
e 250 426
e 251 186
e 251 254
e 251 255
e 252 186
e 252 253
e 252 255
e 253 186
e 253 252
e 253 255
e 254 186
e 254 251
e 254 255
e 255 186
e 255 251
e 255 252
e 255 253
e 255 254
e 256 186
e 256 313
e 256 314
e 257 238
e 257 240
e 257 244
e 257 249
e 257 355
e 258 145
e 258 147
e 258 259
e 259 145
e 259 147
e 259 161
e 259 186
e 259 258
e 259 295
e 260 186
e 260 194
e 260 219
e 261 50
e 261 186
e 261 198
e 261 311
e 261 408
e 262 113
e 262 186
e 263 205
e 263 231
e 263 397
e 264 155
e 264 414
e 264 434
e 265 153
e 265 415
e 266 110
e 266 316
e 266 408
e 266 417
e 267 155
e 267 202
e 267 220
e 267 295
e 267 298
e 267 439
e 268 86
e 268 89
e 268 165
e 269 89
e 269 109
e 269 186
e 269 205
e 269 220
e 269 408
e 270 78
e 270 153
e 270 155
e 270 343
e 270 391
e 270 395
e 271 153
e 271 155
e 271 298
e 271 343
e 271 395
e 271 427
e 272 80
e 272 81
e 272 82
e 272 83
e 272 84
e 272 156
e 272 186
e 272 210
e 272 273
e 272 300
e 273 80
e 273 81
e 273 82
e 273 83
e 273 84
e 273 147
e 273 156
e 273 186
e 273 216
e 273 272
e 273 408
e 273 426
e 274 56
e 274 123
e 274 225
e 274 433
e 275 127
e 275 128
e 275 231
e 275 344
e 276 153
e 276 155
e 276 343
e 276 388
e 276 392
e 276 395
e 277 89
e 277 153
e 277 155
e 277 343
e 277 395
e 277 437
e 278 101
e 278 119
e 278 426
e 279 186
e 279 317
e 279 389
e 280 105
e 280 155
e 280 173
e 280 174
e 280 289
e 280 298
e 281 73
e 281 349
e 281 426
e 282 89
e 282 153
e 282 205
e 282 223
e 282 227
e 282 228
e 282 233
e 282 385
e 282 421
e 283 186
e 283 284
e 283 408
e 284 186
e 284 283
e 284 408
e 285 94
e 285 145
e 285 147
e 285 150
e 285 151
e 285 152
e 285 154
e 285 173
e 285 174
e 285 186
e 285 227
e 285 228
e 285 229
e 285 230
e 285 308
e 285 373
e 285 374
e 285 375
e 285 426
e 286 153
e 286 173
e 286 174
e 286 186
e 286 191
e 286 309
e 286 370
e 287 24
e 287 173
e 287 174
e 287 186
e 287 337
e 288 46
e 288 173
e 288 174
e 288 186
e 288 394
e 289 25
e 289 173
e 289 174
e 289 186
e 289 280
e 290 48
e 290 173
e 290 174
e 290 186
e 290 414
e 291 47
e 291 173
e 291 174
e 291 186
e 291 401
e 292 26
e 292 173
e 292 174
e 292 186
e 292 402
e 293 186
e 293 192
e 293 221
e 293 227
e 293 228
e 293 229
e 293 230
e 293 295
e 293 357
e 293 376
e 294 186
e 294 231
e 294 295
e 295 146
e 295 147
e 295 155
e 295 161
e 295 176
e 295 184
e 295 186
e 295 202
e 295 227
e 295 228
e 295 229
e 295 230
e 295 231
e 295 259
e 295 267
e 295 293
e 295 294
e 295 298
e 295 408
e 295 426
e 295 439
e 296 115
e 296 186
e 296 365
e 297 45
e 297 155
e 297 186
e 297 191
e 297 227
e 297 228
e 297 298
e 298 32
e 298 45
e 298 75
e 298 77
e 298 102
e 298 103
e 298 104
e 298 105
e 298 106
e 298 107
e 298 146
e 298 147
e 298 155
e 298 176
e 298 184
e 298 186
e 298 215
e 298 220
e 298 267
e 298 271
e 298 280
e 298 295
e 298 297
e 298 309
e 298 317
e 298 337
e 298 343
e 298 382
e 298 392
e 298 394
e 298 401
e 298 402
e 298 408
e 298 409
e 298 422
e 298 426
e 299 10
e 299 11
e 299 135
e 299 146
e 299 186
e 299 300
e 299 408
e 299 426
e 299 431
e 300 10
e 300 11
e 300 145
e 300 146
e 300 147
e 300 186
e 300 210
e 300 231
e 300 272
e 300 299
e 300 387
e 300 408
e 300 431
e 301 93
e 301 412
e 301 440
e 301 443
e 302 146
e 302 176
e 302 184
e 302 186
e 302 188
e 302 198
e 302 365
e 302 408
e 303 93
e 303 145
e 303 147
e 303 426
e 303 438
e 304 135
e 304 205
e 304 208
e 304 231
e 304 250
e 304 316
e 304 426
e 304 427
e 305 186
e 305 233
e 305 400
e 306 145
e 306 147
e 306 153
e 306 185
e 306 186
e 306 306
e 306 399
e 306 408
e 306 409
e 306 422
e 306 427
e 307 186
e 307 246
e 307 247
e 308 186
e 308 285
e 308 375
e 309 103
e 309 155
e 309 173
e 309 174
e 309 286
e 309 298
e 310 183
e 310 184
e 310 186
e 310 408
e 311 145
e 311 147
e 311 153
e 311 186
e 311 198
e 311 200
e 311 205
e 311 208
e 311 217
e 311 231
e 311 261
e 311 408
e 312 52
e 312 69
e 312 71
e 312 186
e 312 373
e 312 446
e 313 186
e 313 256
e 313 314
e 314 186
e 314 256
e 314 313
e 314 315
e 314 438
e 315 186
e 315 314
e 315 438
e 316 119
e 316 205
e 316 208
e 316 231
e 316 266
e 316 304
e 316 408
e 316 421
e 316 427
e 317 155
e 317 186
e 317 279
e 317 298
e 317 409
e 318 145
e 318 147
e 318 152
e 318 186
e 318 231
e 318 451
e 319 186
e 319 231
e 319 449
e 320 145
e 320 147
e 320 321
e 320 322
e 321 145
e 321 147
e 321 320
e 322 145
e 322 147
e 322 320
e 323 145
e 323 147
e 323 149
e 323 186
e 323 323
e 323 324
e 323 325
e 323 412
e 323 429
e 324 145
e 324 147
e 324 186
e 324 231
e 324 323
e 324 335
e 325 145
e 325 147
e 325 323
e 326 145
e 326 147
e 326 327
e 326 328
e 327 145
e 327 147
e 327 326
e 328 145
e 328 147
e 328 326
e 329 145
e 329 147
e 329 332
e 329 333
e 330 177
e 330 186
e 330 331
e 331 186
e 331 330
e 332 127
e 332 143
e 332 145
e 332 147
e 332 329
e 332 335
e 332 444
e 333 145
e 333 147
e 333 329
e 334 145
e 334 147
e 334 186
e 334 238
e 334 335
e 334 336
e 334 369
e 334 410
e 334 412
e 334 429
e 334 443
e 335 127
e 335 143
e 335 145
e 335 147
e 335 186
e 335 231
e 335 324
e 335 332
e 335 334
e 335 336
e 335 342
e 335 426
e 336 145
e 336 147
e 336 186
e 336 334
e 336 335
e 336 426
e 337 104
e 337 155
e 337 173
e 337 174
e 337 287
e 337 298
e 338 186
e 338 231
e 338 341
e 339 186
e 339 231
e 339 342
e 340 74
e 340 383
e 340 408
e 341 186
e 341 231
e 341 338
e 342 74
e 342 145
e 342 147
e 342 186
e 342 231
e 342 335
e 342 339
e 342 408
e 342 449
e 343 78
e 343 155
e 343 270
e 343 271
e 343 276
e 343 277
e 343 298
e 343 388
e 343 437
e 344 127
e 344 128
e 344 231
e 344 275
e 345 186
e 345 346
e 345 348
e 345 380
e 345 408
e 346 186
e 346 345
e 346 347
e 346 408
e 346 426
e 347 184
e 347 186
e 347 205
e 347 346
e 347 426
e 348 73
e 348 146
e 348 147
e 348 345
e 348 380
e 349 73
e 349 143
e 349 145
e 349 147
e 349 205
e 349 281
e 349 408
e 349 426
e 350 6
e 350 158
e 351 366
e 351 390
e 351 426
e 352 8
e 352 15
e 352 18
e 352 19
e 352 20
e 352 21
e 352 22
e 352 23
e 352 149
e 352 154
e 352 353
e 352 354
e 352 355
e 352 356
e 353 8
e 353 15
e 353 23
e 353 352
e 353 356
e 354 18
e 354 19
e 354 20
e 354 21
e 354 22
e 354 23
e 354 352
e 355 149
e 355 154
e 355 240
e 355 244
e 355 257
e 355 352
e 356 15
e 356 352
e 356 353
e 357 227
e 357 228
e 357 293
e 358 426
e 359 51
e 359 72
e 359 186
e 359 447
e 360 6
e 360 108
e 360 408
e 360 428
e 361 166
e 361 189
e 361 362
e 361 427
e 362 166
e 362 189
e 362 361
e 362 427
e 363 186
e 363 187
e 363 226
e 363 233
e 363 376
e 364 63
e 364 145
e 364 147
e 364 205
e 364 408
e 365 60
e 365 115
e 365 124
e 365 146
e 365 173
e 365 174
e 365 186
e 365 195
e 365 196
e 365 198
e 365 215
e 365 231
e 365 296
e 365 302
e 365 435
e 366 351
e 366 390
e 366 426
e 367 390
e 367 403
e 368 145
e 368 147
e 368 155
e 368 370
e 368 408
e 369 186
e 369 238
e 369 334
e 369 410
e 370 145
e 370 147
e 370 153
e 370 155
e 370 173
e 370 174
e 370 286
e 370 368
e 370 408
e 371 14
e 371 34
e 371 145
e 371 147
e 371 166
e 371 186
e 371 187
e 371 376
e 371 408
e 371 411
e 372 34
e 372 398
e 373 71
e 373 145
e 373 147
e 373 186
e 373 285
e 373 312
e 373 373
e 373 375
e 374 6
e 374 158
e 374 173
e 374 174
e 374 227
e 374 228
e 374 229
e 374 230
e 374 285
e 375 186
e 375 285
e 375 308
e 375 373
e 376 14
e 376 127
e 376 128
e 376 136
e 376 145
e 376 147
e 376 186
e 376 187
e 376 192
e 376 193
e 376 220
e 376 221
e 376 226
e 376 233
e 376 248
e 376 293
e 376 363
e 376 371
e 376 382
e 376 408
e 376 427
e 377 379
e 378 238
e 378 243
e 378 379
e 379 238
e 379 243
e 379 377
e 379 378
e 380 345
e 380 348
e 381 186
e 381 187
e 381 227
e 381 228
e 381 233
e 381 382
e 381 408
e 381 418
e 382 155
e 382 171
e 382 186
e 382 187
e 382 193
e 382 215
e 382 227
e 382 228
e 382 233
e 382 298
e 382 376
e 382 381
e 382 389
e 382 427
e 382 435
e 383 11
e 383 74
e 383 135
e 383 183
e 383 186
e 383 340
e 383 384
e 383 408
e 383 426
e 383 431
e 384 11
e 384 186
e 384 383
e 384 408
e 384 431
e 385 120
e 385 153
e 385 233
e 385 282
e 386 10
e 386 186
e 386 387
e 386 408
e 386 431
e 387 10
e 387 186
e 387 231
e 387 300
e 387 386
e 387 408
e 387 431
e 388 155
e 388 173
e 388 174
e 388 276
e 388 343
e 388 396
e 389 89
e 389 153
e 389 186
e 389 227
e 389 228
e 389 229
e 389 230
e 389 279
e 389 382
e 389 435
e 390 33
e 390 145
e 390 147
e 390 153
e 390 351
e 390 366
e 390 367
e 390 403
e 390 408
e 390 426
e 391 153
e 391 193
e 391 212
e 391 270
e 391 395
e 391 427
e 392 27
e 392 32
e 392 75
e 392 89
e 392 153
e 392 155
e 392 186
e 392 193
e 392 205
e 392 224
e 392 276
e 392 298
e 392 395
e 392 427
e 393 162
e 393 186
e 393 404
e 394 107
e 394 155
e 394 173
e 394 174
e 394 288
e 394 298
e 395 89
e 395 153
e 395 270
e 395 271
e 395 276
e 395 277
e 395 391
e 395 392
e 395 427
e 396 43
e 396 173
e 396 174
e 396 186
e 396 388
e 397 205
e 397 231
e 397 263
e 397 397
e 398 372
e 399 35
e 399 145
e 399 147
e 399 306
e 399 408
e 399 422
e 400 186
e 400 233
e 400 305
e 401 106
e 401 155
e 401 173
e 401 174
e 401 291
e 401 298
e 402 102
e 402 155
e 402 173
e 402 174
e 402 292
e 402 298
e 403 367
e 403 390
e 404 4
e 404 145
e 404 147
e 404 162
e 404 186
e 404 393
e 405 145
e 405 146
e 405 164
e 406 50
e 406 135
e 406 227
e 406 228
e 406 407
e 406 426
e 407 135
e 407 153
e 407 244
e 407 406
e 407 426
e 408 2
e 408 3
e 408 6
e 408 10
e 408 11
e 408 14
e 408 33
e 408 58
e 408 59
e 408 60
e 408 62
e 408 63
e 408 66
e 408 67
e 408 70
e 408 74
e 408 92
e 408 94
e 408 95
e 408 97
e 408 108
e 408 110
e 408 122
e 408 125
e 408 126
e 408 128
e 408 133
e 408 136
e 408 143
e 408 144
e 408 145
e 408 146
e 408 147
e 408 153
e 408 154
e 408 155
e 408 157
e 408 176
e 408 184
e 408 185
e 408 186
e 408 188
e 408 198
e 408 199
e 408 200
e 408 202
e 408 205
e 408 206
e 408 207
e 408 208
e 408 216
e 408 217
e 408 220
e 408 221
e 408 227
e 408 228
e 408 229
e 408 230
e 408 231
e 408 245
e 408 248
e 408 261
e 408 266
e 408 269
e 408 273
e 408 283
e 408 284
e 408 295
e 408 298
e 408 299
e 408 300
e 408 302
e 408 306
e 408 310
e 408 311
e 408 316
e 408 340
e 408 342
e 408 345
e 408 346
e 408 349
e 408 360
e 408 364
e 408 368
e 408 370
e 408 371
e 408 376
e 408 381
e 408 383
e 408 384
e 408 386
e 408 387
e 408 390
e 408 399
e 408 409
e 408 416
e 408 417
e 408 418
e 408 422
e 408 426
e 408 427
e 408 428
e 408 435
e 408 437
e 408 441
e 408 444
e 408 445
e 408 449
e 408 451
e 409 89
e 409 145
e 409 147
e 409 155
e 409 186
e 409 198
e 409 205
e 409 215
e 409 227
e 409 228
e 409 298
e 409 306
e 409 317
e 409 408
e 409 427
e 410 186
e 410 238
e 410 334
e 410 369
e 411 186
e 411 187
e 411 371
e 412 93
e 412 149
e 412 186
e 412 238
e 412 301
e 412 323
e 412 334
e 412 429
e 412 439
e 412 440
e 412 443
e 413 64
e 413 146
e 413 147
e 413 155
e 413 186
e 413 227
e 413 228
e 413 414
e 413 426
e 414 96
e 414 146
e 414 147
e 414 153
e 414 155
e 414 173
e 414 174
e 414 220
e 414 264
e 414 290
e 414 413
e 414 426
e 414 434
e 415 153
e 415 265
e 416 145
e 416 147
e 416 186
e 416 211
e 416 221
e 416 408
e 417 91
e 417 110
e 417 144
e 417 145
e 417 147
e 417 157
e 417 186
e 417 266
e 417 408
e 417 427
e 418 186
e 418 381
e 418 408
e 419 146
e 419 147
e 419 186
e 420 176
e 420 186
e 420 426
e 421 153
e 421 227
e 421 228
e 421 282
e 421 316
e 422 49
e 422 77
e 422 145
e 422 147
e 422 153
e 422 155
e 422 227
e 422 228
e 422 298
e 422 306
e 422 399
e 422 408
e 423 187
e 423 233
e 423 425
e 424 145
e 424 147
e 424 425
e 425 145
e 425 147
e 425 187
e 425 233
e 425 423
e 425 424
e 426 6
e 426 53
e 426 55
e 426 73
e 426 101
e 426 119
e 426 124
e 426 131
e 426 135
e 426 136
e 426 146
e 426 147
e 426 150
e 426 151
e 426 154
e 426 155
e 426 163
e 426 173
e 426 175
e 426 176
e 426 183
e 426 186
e 426 196
e 426 197
e 426 198
e 426 200
e 426 204
e 426 205
e 426 208
e 426 216
e 426 222
e 426 233
e 426 238
e 426 243
e 426 245
e 426 246
e 426 250
e 426 273
e 426 278
e 426 281
e 426 285
e 426 295
e 426 298
e 426 299
e 426 303
e 426 304
e 426 335
e 426 336
e 426 346
e 426 347
e 426 349
e 426 351
e 426 358
e 426 366
e 426 383
e 426 390
e 426 406
e 426 407
e 426 408
e 426 413
e 426 414
e 426 420
e 426 438
e 427 38
e 427 39
e 427 88
e 427 99
e 427 119
e 427 145
e 427 147
e 427 153
e 427 166
e 427 171
e 427 186
e 427 189
e 427 193
e 427 202
e 427 203
e 427 205
e 427 208
e 427 212
e 427 220
e 427 224
e 427 231
e 427 271
e 427 304
e 427 306
e 427 316
e 427 361
e 427 362
e 427 376
e 427 382
e 427 391
e 427 392
e 427 395
e 427 408
e 427 409
e 427 417
e 427 439
e 427 442
e 428 6
e 428 108
e 428 360
e 428 408
e 429 149
e 429 186
e 429 238
e 429 323
e 429 334
e 429 412
e 430 145
e 430 147
e 430 175
e 431 145
e 431 147
e 431 167
e 431 186
e 431 299
e 431 300
e 431 383
e 431 384
e 431 386
e 431 387
e 432 98
e 432 110
e 432 145
e 432 147
e 432 229
e 432 230
e 433 56
e 433 123
e 433 225
e 433 274
e 434 155
e 434 172
e 434 173
e 434 174
e 434 264
e 434 414
e 435 155
e 435 173
e 435 174
e 435 176
e 435 184
e 435 186
e 435 227
e 435 228
e 435 229
e 435 230
e 435 365
e 435 382
e 435 389
e 435 408
e 435 436
e 435 437
e 436 89
e 436 114
e 436 186
e 436 205
e 436 227
e 436 228
e 436 229
e 436 230
e 436 435
e 437 35
e 437 155
e 437 176
e 437 184
e 437 277
e 437 343
e 437 408
e 437 435
e 438 147
e 438 186
e 438 303
e 438 314
e 438 315
e 438 426
e 439 186
e 439 202
e 439 220
e 439 231
e 439 267
e 439 295
e 439 412
e 439 427
e 439 440
e 439 442
e 439 443
e 440 93
e 440 186
e 440 301
e 440 412
e 440 439
e 440 443
e 441 128
e 441 145
e 441 147
e 441 205
e 441 408
e 442 186
e 442 202
e 442 203
e 442 231
e 442 427
e 442 439
e 443 93
e 443 186
e 443 238
e 443 301
e 443 334
e 443 412
e 443 439
e 443 440
e 444 74
e 444 145
e 444 147
e 444 236
e 444 332
e 444 408
e 444 445
e 445 74
e 445 129
e 445 229
e 445 230
e 445 408
e 445 444
e 446 52
e 446 69
e 446 186
e 446 312
e 447 51
e 447 186
e 447 359
e 448 137
e 448 141
e 448 186
e 449 10
e 449 74
e 449 130
e 449 186
e 449 229
e 449 230
e 449 231
e 449 319
e 449 342
e 449 408
e 449 451
e 450 186
e 450 195
e 450 217
e 451 10
e 451 145
e 451 147
e 451 186
e 451 231
e 451 244
e 451 318
e 451 408
e 451 449
e 452 113
e 452 186
e 452 209
e 452 231
e 453 185
e 453 453
